\ This file has been generated by DOcplex
\ ENCODING=ISO-8859-1
\Problem name: random_problem.lp

Minimize
 obj: 452 x0 + 226 x1 + 113 x2 - 624 x3 - 312 x4 - 156 x5 + 428 x6 + 214 x7
      + 107 x8 - 220 x9 - 110 x10 - 55 x11 + [ 6656 x0^2 + 6656 x0*x1
      + 3328 x0*x2 + 128 x0*x3 + 64 x0*x4 + 32 x0*x5 + 3712 x0*x6 + 1856 x0*x7
      + 928 x0*x8 + 7680 x0*x9 + 3840 x0*x10 + 1920 x0*x11 + 1664 x1^2
      + 1664 x1*x2 + 64 x1*x3 + 32 x1*x4 + 16 x1*x5 + 1856 x1*x6 + 928 x1*x7
      + 464 x1*x8 + 3840 x1*x9 + 1920 x1*x10 + 960 x1*x11 + 416 x2^2 + 32 x2*x3
      + 16 x2*x4 + 8 x2*x5 + 928 x2*x6 + 464 x2*x7 + 232 x2*x8 + 1920 x2*x9
      + 960 x2*x10 + 480 x2*x11 + 9344 x3^2 + 9344 x3*x4 + 4672 x3*x5
      + 2304 x3*x6 + 1152 x3*x7 + 576 x3*x8 + 2432 x3*x9 + 1216 x3*x10
      + 608 x3*x11 + 2336 x4^2 + 2336 x4*x5 + 1152 x4*x6 + 576 x4*x7 + 288 x4*x8
      + 1216 x4*x9 + 608 x4*x10 + 304 x4*x11 + 584 x5^2 + 576 x5*x6 + 288 x5*x7
      + 144 x5*x8 + 608 x5*x9 + 304 x5*x10 + 152 x5*x11 + 8832 x6^2 + 8832 x6*x7
      + 4416 x6*x8 + 5504 x6*x9 + 2752 x6*x10 + 1376 x6*x11 + 2208 x7^2
      + 2208 x7*x8 + 2752 x7*x9 + 1376 x7*x10 + 688 x7*x11 + 552 x8^2
      + 1376 x8*x9 + 688 x8*x10 + 344 x8*x11 + 9792 x9^2 + 9792 x9*x10
      + 4896 x9*x11 + 2448 x10^2 + 2448 x10*x11 + 612 x11^2 ]/2
Subject To
 c0: 4 x0 + 2 x1 + x2 + 4 x3 + 2 x4 + x5 + 4 x6 + 2 x7 + x8 + 4 x9 + 2 x10 + x11
      = 7

Bounds
 0 <= x0 <= 1
 0 <= x1 <= 1
 0 <= x2 <= 1
 0 <= x3 <= 1
 0 <= x4 <= 1
 0 <= x5 <= 1
 0 <= x6 <= 1
 0 <= x7 <= 1
 0 <= x8 <= 1
 0 <= x9 <= 1
 0 <= x10 <= 1
 0 <= x11 <= 1

Binaries
 x0 x1 x2 x3 x4 x5 x6 x7 x8 x9 x10 x11
End
